Version identifier: 20.1.0.0 | 2020-11-10 | 9bedb6d68
CPXPARAM_Threads                                 1
CPXPARAM_TimeLimit                               7200
CPXPARAM_MIP_Tolerances_MIPGap                   0
Generic callback                                 0x60
1 of 1 MIP starts provided solutions.
MIP start 'm1' defined initial solution with objective 1340.1005.
Tried aggregator 1 time.
Reduced MIP has 500501 rows, 501001 columns, and 1501000 nonzeros.
Reduced MIP has 1000 binaries, 0 generals, 0 SOSs, and 0 indicators.
Presolve time = 0.51 sec. (474.50 ticks)
Probing time = 0.07 sec. (62.57 ticks)
Tried aggregator 1 time.
Reduced MIP has 500501 rows, 501001 columns, and 1501000 nonzeros.
Reduced MIP has 1000 binaries, 0 generals, 0 SOSs, and 0 indicators.
Presolve time = 0.50 sec. (466.39 ticks)
Probing time = 0.07 sec. (62.57 ticks)
MIP emphasis: balance optimality and feasibility.
MIP search method: dynamic search.
Parallel mode: none, using 1 thread.
Root relaxation solution time = 0.17 sec. (192.73 ticks)

        Nodes                                         Cuts/
   Node  Left     Objective  IInf  Best Integer    Best Bound    ItCnt     Gap

*     0+    0                         1340.1005     2716.0000           102.67%
      0     0     1358.1161    11     1340.1005     2716.0000        0  102.67%
*     0+    0                         1358.0000     1358.1161             0.01%
      0     0     1358.1014    13     1358.0000      Fract: 1      332    0.01%
      0     0     1358.0450    12     1358.0000      Fract: 1      794    0.00%
      0     2     1358.0450    12     1358.0000     1358.0437      794    0.00%
Elapsed time = 316.18 sec. (232362.19 ticks, tree = 0.01 MB, solutions = 2)
      2     0        cutoff           1358.0000     1358.0000     1040    0.00%

Gomory fractional cuts applied:  2
User cuts applied:  1

Root node processing (before b&c):
  Real time             =  316.12 sec. (232305.91 ticks)
Sequential b&c:
  Real time             =    0.85 sec. (703.67 ticks)
                          ------------
Total (root+branch&cut) =  316.98 sec. (233009.58 ticks)
@Parameters: 
is_S_cut                                true
is_add_all_yinF                         true
is_start_value                          true
is_usercut                              true
is_visualization                        false
uc_only_rootnode                        false

data                                    Qi
fn                                      data/Qi/instance_500_1000.csv
mode                                    ZLP
solver                                  cplex

p                                       5
r                                       5

EPS                                     1.0e-06
EPS_vio                                 1.0e-04
beta                                    0.10
gap                                     0.00
nodelimit                               Inf
timelimit                               7200.00


@PrintInfos
ItCnt: 1040
Current gap: 0.00 %
Termination Status: OPTIMAL
Primal Status: FEASIBLE_POINT
Solve Time: 316.98 sec
Objective Value: 1358.000000
Number of Nodes:      3

CutInfo: [phase] num / time (sec) 
ZLP             [phase1]     0 / 0.00 [rLC]     3 / 10.70 [rUC]     5 / 10.47 [sLC]     0 / 0.00 [sUC]     0 / 0.00 
OldSubmodular   [phase1]     0 / 0.00 [rLC]     0 / 0.00 [rUC]     0 / 0.00 [sLC]     0 / 0.00 [sUC]     0 / 0.00 
NewSubmodular   [phase1]     0 / 0.00 [rLC]     0 / 0.00 [rUC]     0 / 0.00 [sLC]     0 / 0.00 [sUC]     0 / 0.00 
PMP             [phase1]     0 / 0.00 [rLC]     5 / 7.41 [rUC]     5 / 7.16 [sLC]     0 / 0.00 [sUC]     0 / 0.00 
Separation Round: [phase1] 0  [rLC] 5  [rUC] 5  [sLC] 0  [sUC] 0
Root Best Bound 1358.000000
Root Best Integer: 1358.000000
Best Bound: 1358.000000
Best Integer: 1358.000000

